* SDPA sparse format data
* File name = Bex5_2_5.dat-s
* mDim =  92, nBlock =  2
* size of bVect = 1 *  92
* size of sparseMatrix =  503 * 5
 92
  2
-6 -200 
   0.0000000000    0.0000000000    0.0000000000    0.0000000000    0.0000000000    0.0000000000    0.0000000000    0.0000000000    0.0000000000    0.0000000000    0.0000000000    0.0000000000   -0.2500000000   -0.3125000000   -0.2812500000   -0.1875000000   -0.1250000000   -0.5625000000   -0.9375000000   -0.5937500000   -0.5000000000   -0.4375000000   -0.5625000000   -0.9375000000   -0.5937500000   -0.5000000000   -0.4375000000   -0.5625000000   -0.9375000000   -0.5937500000   -0.5000000000   -0.4375000000    0.1875000000    0.3750000000    0.1875000000    0.1875000000    0.1875000000    0.1875000000    0.3750000000    0.1875000000    0.1875000000    0.1875000000    0.1875000000    0.3750000000    0.1875000000    0.1875000000    0.1875000000    0.5000000000    1.0000000000    0.5000000000    0.5000000000    0.5000000000    0.5000000000    1.0000000000    0.5000000000    0.5000000000    0.5000000000    0.5000000000    1.0000000000    0.5000000000    0.5000000000    0.5000000000    0.4687500000    0.9375000000    0.4687500000    0.4687500000    0.4687500000    0.4687500000    0.9375000000    0.4687500000    0.4687500000    0.4687500000    0.4687500000    0.9375000000    0.4687500000    0.4687500000    0.4687500000    0.3750000000    0.7500000000    0.3750000000    0.3750000000    0.3750000000    0.3750000000    0.7500000000    0.3750000000    0.3750000000    0.3750000000    0.3750000000    0.7500000000    0.3750000000    0.3750000000    0.3750000000 
  0   1   1   1    1.0000000000
  1   1   1   1    1.0000000000
  4   1   1   1    1.0000000000
  7   1   1   1    1.0000000000
 10   1   1   1    1.0000000000
  0   1   2   2    1.0000000000
  2   1   2   2    1.0000000000
  5   1   2   2    1.0000000000
  8   1   2   2    1.0000000000
 11   1   2   2    1.0000000000
  0   1   3   3    1.0000000000
  3   1   3   3    1.0000000000
  6   1   3   3    1.0000000000
  9   1   3   3    1.0000000000
 12   1   3   3    1.0000000000
  0   1   4   4   -1.0000000000
  1   1   4   4   -1.0000000000
  4   1   4   4   -1.0000000000
  7   1   4   4   -1.0000000000
 10   1   4   4   -1.0000000000
  0   1   5   5   -1.0000000000
  2   1   5   5   -1.0000000000
  5   1   5   5   -1.0000000000
  8   1   5   5   -1.0000000000
 11   1   5   5   -1.0000000000
  0   1   6   6   -1.0000000000
  3   1   6   6   -1.0000000000
  6   1   6   6   -1.0000000000
  9   1   6   6   -1.0000000000
 12   1   6   6   -1.0000000000
  0   2   1   1   -0.2500000000
 63   2   1   1   -0.5000000000
 64   2   1   1   -1.0000000000
 65   2   1   1   -0.5000000000
 66   2   1   1   -0.5000000000
 67   2   1   1   -0.5000000000
 68   2   1   1   -0.5000000000
 69   2   1   1   -1.0000000000
 70   2   1   1   -0.5000000000
 71   2   1   1   -0.5000000000
 72   2   1   1   -0.5000000000
 73   2   1   1   -0.5000000000
 74   2   1   1   -1.0000000000
 75   2   1   1   -0.5000000000
 76   2   1   1   -0.5000000000
 77   2   1   1   -0.5000000000
  0   2   2   2   -1.0000000000
 13   2   2   2   -1.0000000000
 18   2   2   2   -1.0000000000
 23   2   2   2   -1.0000000000
 28   2   2   2   -1.0000000000
  0   2   3   3   -1.0000000000
 14   2   3   3   -1.0000000000
 19   2   3   3   -1.0000000000
 24   2   3   3   -1.0000000000
 29   2   3   3   -1.0000000000
  0   2   4   4   -1.0000000000
 15   2   4   4   -1.0000000000
 20   2   4   4   -1.0000000000
 25   2   4   4   -1.0000000000
 30   2   4   4   -1.0000000000
  0   2   5   5   -1.0000000000
 16   2   5   5   -1.0000000000
 21   2   5   5   -1.0000000000
 26   2   5   5   -1.0000000000
 31   2   5   5   -1.0000000000
  0   2   6   6   -1.0000000000
 17   2   6   6   -1.0000000000
 22   2   6   6   -1.0000000000
 27   2   6   6   -1.0000000000
 32   2   6   6   -1.0000000000
 13   2   7   7    0.1666666667
 33   2   7   7   -1.0000000000
 18   2   7   7    0.8333333333
 48   2   7   7   -0.3333333333
 63   2   7   7   -0.3333333333
 78   2   7   7   -0.5000000000
 38   2   7   7   -1.0000000000
 53   2   7   7   -0.3333333333
 68   2   7   7   -0.3333333333
 83   2   7   7   -0.5000000000
 23   2   7   7    0.8333333333
 43   2   7   7   -1.0000000000
 58   2   7   7   -0.3333333333
 73   2   7   7   -0.3333333333
 88   2   7   7   -0.5000000000
 28   2   7   7    0.8333333333
 13   2   8   8   -0.1666666667
 33   2   8   8   -0.3333333333
 18   2   8   8    0.6666666667
 48   2   8   8   -1.0000000000
 63   2   8   8   -0.8333333333
 78   2   8   8   -0.8333333333
 38   2   8   8   -0.3333333333
 53   2   8   8   -1.0000000000
 68   2   8   8   -0.8333333333
 83   2   8   8   -0.8333333333
 23   2   8   8    0.6666666667
 43   2   8   8   -0.3333333333
 58   2   8   8   -1.0000000000
 73   2   8   8   -0.8333333333
 88   2   8   8   -0.8333333333
 28   2   8   8    0.6666666667
 14   2   9   9   -0.1666666667
 34   2   9   9   -1.0000000000
 19   2   9   9    0.5000000000
 49   2   9   9   -0.3333333333
 64   2   9   9   -0.3333333333
 79   2   9   9   -0.5000000000
 39   2   9   9   -1.0000000000
 54   2   9   9   -0.3333333333
 69   2   9   9   -0.3333333333
 84   2   9   9   -0.5000000000
 24   2   9   9    0.5000000000
 44   2   9   9   -1.0000000000
 59   2   9   9   -0.3333333333
 74   2   9   9   -0.3333333333
 89   2   9   9   -0.5000000000
 29   2   9   9    0.5000000000
 34   2  10  10   -0.3333333333
 19   2  10  10    0.8333333333
 49   2  10  10   -1.0000000000
 64   2  10  10   -0.8333333333
 79   2  10  10   -0.8333333333
 39   2  10  10   -0.3333333333
 54   2  10  10   -1.0000000000
 69   2  10  10   -0.8333333333
 84   2  10  10   -0.8333333333
 24   2  10  10    0.8333333333
 44   2  10  10   -0.3333333333
 59   2  10  10   -1.0000000000
 74   2  10  10   -0.8333333333
 89   2  10  10   -0.8333333333
 29   2  10  10    0.8333333333
 35   2  11  11   -1.0000000000
 20   2  11  11    0.6666666667
 50   2  11  11   -0.3333333333
 65   2  11  11   -0.3333333333
 80   2  11  11   -0.5000000000
 40   2  11  11   -1.0000000000
 55   2  11  11   -0.3333333333
 70   2  11  11   -0.3333333333
 85   2  11  11   -0.5000000000
 25   2  11  11    0.6666666667
 45   2  11  11   -1.0000000000
 60   2  11  11   -0.3333333333
 75   2  11  11   -0.3333333333
 90   2  11  11   -0.5000000000
 30   2  11  11    0.6666666667
 15   2  12  12    0.0333333333
 35   2  12  12   -0.3333333333
 20   2  12  12    0.8666666667
 50   2  12  12   -1.0000000000
 65   2  12  12   -0.8333333333
 80   2  12  12   -0.8333333333
 40   2  12  12   -0.3333333333
 55   2  12  12   -1.0000000000
 70   2  12  12   -0.8333333333
 85   2  12  12   -0.8333333333
 25   2  12  12    0.8666666667
 45   2  12  12   -0.3333333333
 60   2  12  12   -1.0000000000
 75   2  12  12   -0.8333333333
 90   2  12  12   -0.8333333333
 30   2  12  12    0.8666666667
 36   2  13  13   -1.0000000000
 21   2  13  13    0.6666666667
 51   2  13  13   -0.3333333333
 66   2  13  13   -0.3333333333
 81   2  13  13   -0.5000000000
 41   2  13  13   -1.0000000000
 56   2  13  13   -0.3333333333
 71   2  13  13   -0.3333333333
 86   2  13  13   -0.5000000000
 26   2  13  13    0.6666666667
 46   2  13  13   -1.0000000000
 61   2  13  13   -0.3333333333
 76   2  13  13   -0.3333333333
 91   2  13  13   -0.5000000000
 31   2  13  13    0.6666666667
 16   2  14  14   -0.1666666667
 36   2  14  14   -0.3333333333
 21   2  14  14    0.6666666667
 51   2  14  14   -1.0000000000
 66   2  14  14   -0.8333333333
 81   2  14  14   -0.8333333333
 41   2  14  14   -0.3333333333
 56   2  14  14   -1.0000000000
 71   2  14  14   -0.8333333333
 86   2  14  14   -0.8333333333
 26   2  14  14    0.6666666667
 46   2  14  14   -0.3333333333
 61   2  14  14   -1.0000000000
 76   2  14  14   -0.8333333333
 91   2  14  14   -0.8333333333
 31   2  14  14    0.6666666667
 37   2  15  15   -1.0000000000
 22   2  15  15    0.6666666667
 52   2  15  15   -0.3333333333
 67   2  15  15   -0.3333333333
 82   2  15  15   -0.5000000000
 42   2  15  15   -1.0000000000
 57   2  15  15   -0.3333333333
 72   2  15  15   -0.3333333333
 87   2  15  15   -0.5000000000
 27   2  15  15    0.6666666667
 47   2  15  15   -1.0000000000
 62   2  15  15   -0.3333333333
 77   2  15  15   -0.3333333333
 92   2  15  15   -0.5000000000
 32   2  15  15    0.6666666667
 17   2  16  16   -0.1666666667
 37   2  16  16   -0.3333333333
 22   2  16  16    0.6666666667
 52   2  16  16   -1.0000000000
 67   2  16  16   -0.8333333333
 82   2  16  16   -0.8333333333
 42   2  16  16   -0.3333333333
 57   2  16  16   -1.0000000000
 72   2  16  16   -0.8333333333
 87   2  16  16   -0.8333333333
 27   2  16  16    0.6666666667
 47   2  16  16   -0.3333333333
 62   2  16  16   -1.0000000000
 77   2  16  16   -0.8333333333
 92   2  16  16   -0.8333333333
 32   2  16  16    0.6666666667
  1   2  17  17    1.0000000000
  2   2  18  18    1.0000000000
  3   2  19  19    1.0000000000
  4   2  20  20    1.0000000000
  5   2  21  21    1.0000000000
  6   2  22  22    1.0000000000
  7   2  23  23    1.0000000000
  8   2  24  24    1.0000000000
  9   2  25  25    1.0000000000
 10   2  26  26    1.0000000000
 11   2  27  27    1.0000000000
 12   2  28  28    1.0000000000
 13   2  29  29    1.0000000000
 14   2  30  30    1.0000000000
 15   2  31  31    1.0000000000
 16   2  32  32    1.0000000000
 17   2  33  33    1.0000000000
 18   2  34  34    1.0000000000
 19   2  35  35    1.0000000000
 20   2  36  36    1.0000000000
 21   2  37  37    1.0000000000
 22   2  38  38    1.0000000000
 23   2  39  39    1.0000000000
 24   2  40  40    1.0000000000
 25   2  41  41    1.0000000000
 26   2  42  42    1.0000000000
 27   2  43  43    1.0000000000
 28   2  44  44    1.0000000000
 29   2  45  45    1.0000000000
 30   2  46  46    1.0000000000
 31   2  47  47    1.0000000000
 32   2  48  48    1.0000000000
  0   2  49  49   -1.0000000000
  1   2  49  49   -1.0000000000
  0   2  50  50   -1.0000000000
  2   2  50  50   -1.0000000000
  0   2  51  51   -1.0000000000
  3   2  51  51   -1.0000000000
  0   2  52  52   -1.0000000000
  4   2  52  52   -1.0000000000
  0   2  53  53   -1.0000000000
  5   2  53  53   -1.0000000000
  0   2  54  54   -1.0000000000
  6   2  54  54   -1.0000000000
  0   2  55  55   -1.0000000000
  7   2  55  55   -1.0000000000
  0   2  56  56   -1.0000000000
  8   2  56  56   -1.0000000000
  0   2  57  57   -1.0000000000
  9   2  57  57   -1.0000000000
  0   2  58  58   -1.0000000000
 10   2  58  58   -1.0000000000
  0   2  59  59   -1.0000000000
 11   2  59  59   -1.0000000000
  0   2  60  60   -1.0000000000
 12   2  60  60   -1.0000000000
  0   2  61  61   -1.0000000000
 13   2  61  61   -1.0000000000
  0   2  62  62   -1.0000000000
 14   2  62  62   -1.0000000000
  0   2  63  63   -1.0000000000
 15   2  63  63   -1.0000000000
  0   2  64  64   -1.0000000000
 16   2  64  64   -1.0000000000
  0   2  65  65   -1.0000000000
 17   2  65  65   -1.0000000000
  0   2  66  66   -1.0000000000
 18   2  66  66   -1.0000000000
  0   2  67  67   -1.0000000000
 19   2  67  67   -1.0000000000
  0   2  68  68   -1.0000000000
 20   2  68  68   -1.0000000000
  0   2  69  69   -1.0000000000
 21   2  69  69   -1.0000000000
  0   2  70  70   -1.0000000000
 22   2  70  70   -1.0000000000
  0   2  71  71   -1.0000000000
 23   2  71  71   -1.0000000000
  0   2  72  72   -1.0000000000
 24   2  72  72   -1.0000000000
  0   2  73  73   -1.0000000000
 25   2  73  73   -1.0000000000
  0   2  74  74   -1.0000000000
 26   2  74  74   -1.0000000000
  0   2  75  75   -1.0000000000
 27   2  75  75   -1.0000000000
  0   2  76  76   -1.0000000000
 28   2  76  76   -1.0000000000
  0   2  77  77   -1.0000000000
 29   2  77  77   -1.0000000000
  0   2  78  78   -1.0000000000
 30   2  78  78   -1.0000000000
  0   2  79  79   -1.0000000000
 31   2  79  79   -1.0000000000
  0   2  80  80   -1.0000000000
 32   2  80  80   -1.0000000000
 33   2  81  81    1.0000000000
 34   2  82  82    1.0000000000
 35   2  83  83    1.0000000000
 36   2  84  84    1.0000000000
 37   2  85  85    1.0000000000
 38   2  86  86    1.0000000000
 39   2  87  87    1.0000000000
 40   2  88  88    1.0000000000
 41   2  89  89    1.0000000000
 42   2  90  90    1.0000000000
 43   2  91  91    1.0000000000
 44   2  92  92    1.0000000000
 45   2  93  93    1.0000000000
 46   2  94  94    1.0000000000
 47   2  95  95    1.0000000000
 48   2  96  96    1.0000000000
 49   2  97  97    1.0000000000
 50   2  98  98    1.0000000000
 51   2  99  99    1.0000000000
 52   2 100 100    1.0000000000
 53   2 101 101    1.0000000000
 54   2 102 102    1.0000000000
 55   2 103 103    1.0000000000
 56   2 104 104    1.0000000000
 57   2 105 105    1.0000000000
 58   2 106 106    1.0000000000
 59   2 107 107    1.0000000000
 60   2 108 108    1.0000000000
 61   2 109 109    1.0000000000
 62   2 110 110    1.0000000000
 63   2 111 111    1.0000000000
 64   2 112 112    1.0000000000
 65   2 113 113    1.0000000000
 66   2 114 114    1.0000000000
 67   2 115 115    1.0000000000
 68   2 116 116    1.0000000000
 69   2 117 117    1.0000000000
 70   2 118 118    1.0000000000
 71   2 119 119    1.0000000000
 72   2 120 120    1.0000000000
 73   2 121 121    1.0000000000
 74   2 122 122    1.0000000000
 75   2 123 123    1.0000000000
 76   2 124 124    1.0000000000
 77   2 125 125    1.0000000000
 78   2 126 126    1.0000000000
 79   2 127 127    1.0000000000
 80   2 128 128    1.0000000000
 81   2 129 129    1.0000000000
 82   2 130 130    1.0000000000
 83   2 131 131    1.0000000000
 84   2 132 132    1.0000000000
 85   2 133 133    1.0000000000
 86   2 134 134    1.0000000000
 87   2 135 135    1.0000000000
 88   2 136 136    1.0000000000
 89   2 137 137    1.0000000000
 90   2 138 138    1.0000000000
 91   2 139 139    1.0000000000
 92   2 140 140    1.0000000000
 33   2 141 141   -1.0000000000
  0   2 141 141   -1.0000000000
 34   2 142 142   -1.0000000000
  0   2 142 142   -1.0000000000
 35   2 143 143   -1.0000000000
  0   2 143 143   -1.0000000000
 36   2 144 144   -1.0000000000
  0   2 144 144   -1.0000000000
 37   2 145 145   -1.0000000000
  0   2 145 145   -1.0000000000
 38   2 146 146   -1.0000000000
  0   2 146 146   -1.0000000000
 39   2 147 147   -1.0000000000
  0   2 147 147   -1.0000000000
 40   2 148 148   -1.0000000000
  0   2 148 148   -1.0000000000
 41   2 149 149   -1.0000000000
  0   2 149 149   -1.0000000000
 42   2 150 150   -1.0000000000
  0   2 150 150   -1.0000000000
 43   2 151 151   -1.0000000000
  0   2 151 151   -1.0000000000
 44   2 152 152   -1.0000000000
  0   2 152 152   -1.0000000000
 45   2 153 153   -1.0000000000
  0   2 153 153   -1.0000000000
 46   2 154 154   -1.0000000000
  0   2 154 154   -1.0000000000
 47   2 155 155   -1.0000000000
  0   2 155 155   -1.0000000000
 48   2 156 156   -1.0000000000
  0   2 156 156   -1.0000000000
 49   2 157 157   -1.0000000000
  0   2 157 157   -1.0000000000
 50   2 158 158   -1.0000000000
  0   2 158 158   -1.0000000000
 51   2 159 159   -1.0000000000
  0   2 159 159   -1.0000000000
 52   2 160 160   -1.0000000000
  0   2 160 160   -1.0000000000
 53   2 161 161   -1.0000000000
  0   2 161 161   -1.0000000000
 54   2 162 162   -1.0000000000
  0   2 162 162   -1.0000000000
 55   2 163 163   -1.0000000000
  0   2 163 163   -1.0000000000
 56   2 164 164   -1.0000000000
  0   2 164 164   -1.0000000000
 57   2 165 165   -1.0000000000
  0   2 165 165   -1.0000000000
 58   2 166 166   -1.0000000000
  0   2 166 166   -1.0000000000
 59   2 167 167   -1.0000000000
  0   2 167 167   -1.0000000000
 60   2 168 168   -1.0000000000
  0   2 168 168   -1.0000000000
 61   2 169 169   -1.0000000000
  0   2 169 169   -1.0000000000
 62   2 170 170   -1.0000000000
  0   2 170 170   -1.0000000000
 63   2 171 171   -1.0000000000
  0   2 171 171   -1.0000000000
 64   2 172 172   -1.0000000000
  0   2 172 172   -1.0000000000
 65   2 173 173   -1.0000000000
  0   2 173 173   -1.0000000000
 66   2 174 174   -1.0000000000
  0   2 174 174   -1.0000000000
 67   2 175 175   -1.0000000000
  0   2 175 175   -1.0000000000
 68   2 176 176   -1.0000000000
  0   2 176 176   -1.0000000000
 69   2 177 177   -1.0000000000
  0   2 177 177   -1.0000000000
 70   2 178 178   -1.0000000000
  0   2 178 178   -1.0000000000
 71   2 179 179   -1.0000000000
  0   2 179 179   -1.0000000000
 72   2 180 180   -1.0000000000
  0   2 180 180   -1.0000000000
 73   2 181 181   -1.0000000000
  0   2 181 181   -1.0000000000
 74   2 182 182   -1.0000000000
  0   2 182 182   -1.0000000000
 75   2 183 183   -1.0000000000
  0   2 183 183   -1.0000000000
 76   2 184 184   -1.0000000000
  0   2 184 184   -1.0000000000
 77   2 185 185   -1.0000000000
  0   2 185 185   -1.0000000000
 78   2 186 186   -1.0000000000
  0   2 186 186   -1.0000000000
 79   2 187 187   -1.0000000000
  0   2 187 187   -1.0000000000
 80   2 188 188   -1.0000000000
  0   2 188 188   -1.0000000000
 81   2 189 189   -1.0000000000
  0   2 189 189   -1.0000000000
 82   2 190 190   -1.0000000000
  0   2 190 190   -1.0000000000
 83   2 191 191   -1.0000000000
  0   2 191 191   -1.0000000000
 84   2 192 192   -1.0000000000
  0   2 192 192   -1.0000000000
 85   2 193 193   -1.0000000000
  0   2 193 193   -1.0000000000
 86   2 194 194   -1.0000000000
  0   2 194 194   -1.0000000000
 87   2 195 195   -1.0000000000
  0   2 195 195   -1.0000000000
 88   2 196 196   -1.0000000000
  0   2 196 196   -1.0000000000
 89   2 197 197   -1.0000000000
  0   2 197 197   -1.0000000000
 90   2 198 198   -1.0000000000
  0   2 198 198   -1.0000000000
 91   2 199 199   -1.0000000000
  0   2 199 199   -1.0000000000
 92   2 200 200   -1.0000000000
  0   2 200 200   -1.0000000000
